50 1000
97 444
31 95
53 258
62 119
52 472
8 94
49 11
50 145
59 156
55 366
94 411
72 348
92 259
20 107
38 121
8 306
95 287
8 392
41 39
7 309
62 267
68 90
8 270
11 445
24 45
77 44
87 451
31 216
16 492
73 136
75 314
6 327
11 224
85 308
73 277
41 488
34 114
86 376
41 132
34 212
17 353
83 163
59 171
97 489
10 14
59 328
73 61
10 285
28 269
34 77
